Maximize
  10 x_Oil_Max + 15 x_Oil_Max_Pro
Subject To
  c1: 46 x_Oil_Max + 13 x_Oil_Max_Pro <= 1345
  c2: 43 x_Oil_Max + 4 x_Oil_Max_Pro <= 346
  c3: 56 x_Oil_Max + 45 x_Oil_Max_Pro <= 1643
Integer
  x_Oil_Max x_Oil_Max_Pro
End